20
76
4
17
83
45
84
0 2
0 5
0 8
0 11
0 12
0 13
0 16
0 17
0 18
1 9
1 10
1 12
1 13
1 14
1 17
2 5
2 7
2 8
2 9
2 11
2 13
2 14
2 17
3 4
3 5
3 6
3 8
3 9
3 10
3 14
3 16
3 18
4 8
4 11
4 15
4 18
5 8
5 11
5 13
5 14
5 15
5 16
5 19
6 7
6 9
6 13
6 19
7 8
7 12
7 13
7 14
7 16
7 17
7 19
8 9
8 16
9 10
9 12
9 13
9 14
9 15
9 16
9 18
10 15
10 18
10 19
11 15
11 16
11 18
12 13
13 16
14 18
15 19
16 18
16 19
17 19
1 12 10 13 2 8
3 7 15 14 0 11
4 17 18 9 6 19
5 16
